solution status: optimal solution found
objective value:                     127176.495892488
d11(0,0)                                            1 	(obj:0)
d11(1,1)                                            1 	(obj:0)
d11(1,2)                                            1 	(obj:0)
d11(1,3)                                            1 	(obj:0)
d11(2,4)                                            1 	(obj:0)
d11(2,7)                                            1 	(obj:0)
d11(2,10)                                           1 	(obj:0)
d11(2,11)                                           1 	(obj:0)
d11(3,13)                                           1 	(obj:0)
d11(3,14)                                           1 	(obj:0)
d11(3,16)                                           1 	(obj:0)
d11(3,17)                                           1 	(obj:0)
d11(3,19)                                           1 	(obj:0)
d11(3,20)                                           1 	(obj:0)
d11(3,22)                                           1 	(obj:0)
d11(3,23)                                           1 	(obj:0)
d11(3,25)                                           1 	(obj:0)
d11(3,26)                                           1 	(obj:0)
d11(3,28)                                           1 	(obj:0)
d11(3,29)                                           1 	(obj:0)
d11(3,31)                                           1 	(obj:0)
d11(3,32)                                           1 	(obj:0)
d11(3,34)                                           1 	(obj:0)
d11(3,35)                                           1 	(obj:0)
d11(3,37)                                           1 	(obj:0)
d11(3,38)                                           1 	(obj:0)
d12(2,6)                                            1 	(obj:0)
d12(2,9)                                            1 	(obj:0)
d12(2,12)                                           1 	(obj:0)
d12(3,15)                                           1 	(obj:0)
d12(3,18)                                           1 	(obj:0)
d12(3,21)                                           1 	(obj:0)
d12(3,24)                                           1 	(obj:0)
d12(3,33)                                           1 	(obj:0)
d12(3,36)                                           1 	(obj:0)
d12(3,39)                                           1 	(obj:0)
d21(2,4)                                            1 	(obj:0)
d21(3,13)                                           1 	(obj:0)
d21(3,14)                                           1 	(obj:0)
d21(3,15)                                           1 	(obj:0)
d21(3,16)                                           1 	(obj:0)
d21(3,17)                                           1 	(obj:0)
d21(3,19)                                           1 	(obj:0)
d21(3,22)                                           1 	(obj:0)
d21(3,23)                                           1 	(obj:0)
d21(3,25)                                           1 	(obj:0)
d21(3,31)                                           1 	(obj:0)
STE(1,1)                             3010.90629941801 	(obj:0)
STE(0,0)                                         6300 	(obj:0)
STE(1,2)                              4007.6723027513 	(obj:0)
STE(1,3)                             5225.12450608468 	(obj:0)
STE(2,4)                             1510.14029608467 	(obj:0)
STE(2,5)                             2506.90629941801 	(obj:0)
STE(2,6)                             3419.46963326799 	(obj:0)
STE(2,7)                             2506.90629941801 	(obj:0)
STE(2,8)                              3503.6723027513 	(obj:0)
STE(2,9)                             4416.23563660128 	(obj:0)
STE(2,10)                            3724.35850275139 	(obj:0)
STE(2,11)                            4721.12450608468 	(obj:0)
STE(2,12)                            5633.68783993467 	(obj:0)
STE(3,13)                           -1016.09534051661 	(obj:0)
STE(3,14)                           -19.3293371833172 	(obj:0)
STE(3,15)                            1006.14029608467 	(obj:0)
STE(3,16)                           -19.3293371832723 	(obj:0)
STE(3,17)                            977.436666150019 	(obj:0)
STE(3,18)                            2002.90629941801 	(obj:0)
STE(3,19)                            893.233996666709 	(obj:0)
STE(3,20)                                        1890 	(obj:0)
STE(3,21)                            2915.46963326799 	(obj:0)
STE(3,22)                           -19.3293371832726 	(obj:0)
STE(3,23)                            977.436666150019 	(obj:0)
STE(3,24)                            2002.90629941801 	(obj:0)
STE(3,25)                            977.436666150018 	(obj:0)
STE(3,26)                            1974.20266948331 	(obj:0)
STE(3,27)                             2999.6723027513 	(obj:0)
STE(3,28)                             1889.9999999999 	(obj:0)
STE(3,29)                            2886.76600333329 	(obj:0)
STE(3,30)                            3912.23563660128 	(obj:0)
STE(3,31)                            1198.12286615011 	(obj:0)
STE(3,32)                             2194.8888694834 	(obj:0)
STE(3,33)                            3220.35850275139 	(obj:0)
STE(3,34)                             2194.8888694834 	(obj:0)
STE(3,35)                            3191.65487281669 	(obj:0)
STE(3,36)                            4217.12450608468 	(obj:0)
STE(3,37)                            3107.45220333338 	(obj:0)
STE(3,38)                            4104.21820666668 	(obj:0)
STE(3,39)                            5129.68783993467 	(obj:0)
y1(3,23)                             922.922669941192 	(obj:0)
y1(3,25)                             1820.01207294115 	(obj:0)
y1(3,26)                             922.922669941192 	(obj:0)
y1(3,28)                             1820.01207294125 	(obj:0)
y1(3,29)                             922.922669941192 	(obj:0)
y1(3,31)                             1820.01207294115 	(obj:0)
y1(3,32)                             922.922669941192 	(obj:0)
y1(3,34)                             1820.01207294115 	(obj:0)
y1(3,35)                             922.922669941192 	(obj:0)
y1(3,37)                             1820.01207294115 	(obj:0)
y1(3,38)                             922.922669941192 	(obj:0)
BG(3)                                4319.60782647012 	(obj:10)
AVE(1)                               3199.95851117552 	(obj:0)
WB(2)                                3265.15049132519 	(obj:0)
AVE(2)                               3265.15049132519 	(obj:0)
WB(3)                                3291.35535332476 	(obj:0)
AVE(3)                               3291.35535332476 	(obj:0)
WG(1)                                3199.95851117552 	(obj:10)
BG(1)                                1820.23325160384 	(obj:10)
BG(2)                                         3377.85 	(obj:10)
y1(1,1)                              2506.58433052379 	(obj:0)
y1(1,2)                              1609.49492752383 	(obj:0)
y1(1,3)                               513.78794452379 	(obj:0)
y1(2,4)                              897.089403000003 	(obj:0)
y1(2,7)                              897.089402999962 	(obj:0)
y1(2,10)                             897.089402999962 	(obj:0)
y1(3,13)                             1820.01207294115 	(obj:0)
y1(3,14)                             922.922669941192 	(obj:0)
y1(3,16)                             1820.01207294115 	(obj:0)
y1(3,17)                             922.922669941192 	(obj:0)
y1(3,19)                             1820.01207294115 	(obj:0)
y1(3,20)                             922.922669941192 	(obj:0)
y1(3,22)                             1820.01207294115 	(obj:0)
y2(2,6)                               960.59298299998 	(obj:0)
y2(2,9)                               960.59298299998 	(obj:0)
y2(2,12)                             960.592982999986 	(obj:0)
